50
237 104 397 155 67 402 918 801 766 222 537 277 173 107 215 928 829 807 801 194 310 627 732 855 881 87 606 672 506 178 474 90 935 866 548 301 909 573 883 849 509 414 599 432 162 306 813 44 47 627 
237 104 397 155 67 402 918 801 766 222 537 277 173 107 215 928 829 807 801 194 310 627 732 855 881 87 606 672 506 178 474 90 935 866 548 301 909 573 883 849 509 414 599 432 162 306 813 44 47 627 
12263
